[[66, 11, 65, 38, 10, 31, 58, 72, 39, 12, 40, 9, 32, 25, 55, 18, 50, 44, 3, 24, 49, 56, 23, 63, 16, 33, 51, 6, 2, 74, 62, 73, 43, 41], [42, 64, 22, 28, 61, 21, 47, 69, 36, 71, 60, 70, 20, 37, 5, 15, 57, 13, 27, 45, 29, 48, 30, 4, 68, 75, 76, 17, 26, 67, 34, 46, 52, 7, 8, 35, 54, 19, 53, 14, 59]]